
Gurobi 6.0.4 (win64) logging started 06/13/15 10:18:59

Warning: unknown variable 'kDash_dN' in bounds section
Read LP format model from file C:\MT\repository\VRPTWMS\instances\mip\freight\N8-C_DV10-C_SV50_F18_10_No_1.lp
Reading time = 0.02 seconds
(null): 353 rows, 218 columns, 1467 nonzeros
Optimize a model with 353 rows, 218 columns and 1467 nonzeros
Model has 648 quadratic constraints
WARNING: Only barrier available for SOCP models
Coefficient statistics:
  Matrix range    [1e+00, 1e+02]
  Objective range [3e+00, 1e+03]
  Bounds range    [1e+00, 1e+02]
  RHS range       [1e+00, 1e+02]
Presolve removed 55 rows and 30 columns
Presolve time: 0.05s
Presolved: 1672 rows, 907 columns, 7688 nonzeros
Variable types: 655 continuous, 252 integer (200 binary)
Found heuristic solution: objective 8375.8800000
Optimize a model with 1672 rows, 907 columns and 7688 nonzeros
Coefficient statistics:
  Matrix range    [8e-01, 1e+02]
  Objective range [3e+00, 1e+03]
  Bounds range    [1e+00, 1e+02]
  RHS range       [1e+00, 1e+02]

Concurrent LP optimizer: dual simplex and barrier
Showing barrier log only...

Presolve removed 109 rows and 56 columns
Presolved: 1563 rows, 851 columns, 7188 nonzeros

Root barrier log...

Ordering time: 0.02s

Barrier performed 0 iterations in 0.08 seconds
Barrier solve interrupted - model solved by another algorithm


Solved with dual simplex
Solved in 157 iterations and 0.08 seconds
Optimal objective  1.089490739e+03

Root relaxation: objective 1.089491e+03, 157 iterations, 0.02 seconds

    Nodes    |    Current Node    |     Objective Bounds      |     Work
 Expl Unexpl |  Obj  Depth IntInf | Incumbent    BestBd   Gap | It/Node Time

     0     0 1089.49074    0   69 8375.88000 1089.49074  87.0%     -    0s
H    0     0                    7322.5700000 1089.49074  85.1%     -    0s
     0     0 1895.85747    0   54 7322.57000 1895.85747  74.1%     -    0s
H    0     0                    7318.3800000 1895.85747  74.1%     -    0s
H    0     0                    5323.2000000 1895.85747  64.4%     -    0s
     0     0 2180.66449    0   47 5323.20000 2180.66449  59.0%     -    0s
H    0     0                    5316.5900000 2180.66449  59.0%     -    0s
     0     0 2183.69222    0   87 5316.59000 2183.69222  58.9%     -    0s
     0     0 2184.10588    0   77 5316.59000 2184.10588  58.9%     -    0s
H    0     0                    5277.6800000 2184.10588  58.6%     -    0s
     0     0 2184.10588    0   80 5277.68000 2184.10588  58.6%     -    0s
     0     0 2184.10588    0   69 5277.68000 2184.10588  58.6%     -    0s
H    0     0                    4277.3000000 2184.10588  48.9%     -    0s
     0     0 2184.10588    0   79 4277.30000 2184.10588  48.9%     -    0s
     0     0 2184.10588    0   79 4277.30000 2184.10588  48.9%     -    0s
     0     0 2184.10588    0   82 4277.30000 2184.10588  48.9%     -    0s
     0     0 2184.10588    0   79 4277.30000 2184.10588  48.9%     -    0s
     0     2 2184.10588    0   71 4277.30000 2184.10588  48.9%     -    0s
*  705   319              42    3352.6600000 2213.86281  34.0%  42.2    1s
  1200   451 3287.62900   27   57 3352.66000 2222.09878  33.7%  26.9    5s
* 1222   391              36    3303.1600000 2222.09878  32.7%  27.4    5s
H 1900   342                    3299.6500000 2240.15009  32.1%  39.3    6s
H 3567   674                    3299.3500000 2270.68500  31.2%  44.4    9s
  3620   673     cutoff   29      3299.35000 2272.12000  31.1%  44.4   10s
H 3958   673                    3298.4700000 2277.09071  31.0%  45.6   10s
  5868   329 3267.82303   29   45 3298.47000 2368.73349  28.2%  48.5   15s

Cutting planes:
  Learned: 2
  Gomory: 5
  Cover: 96
  Implied bound: 150
  Clique: 6
  MIR: 60
  Flow cover: 142
  GUB cover: 26
  Zero half: 66

Explored 7947 nodes (414892 simplex iterations) in 18.43 seconds
Thread count was 2 (of 4 available processors)

Optimal solution found (tolerance 1.00e-04)
Best objective 3.298470000000e+03, best bound 3.298470000000e+03, gap 0.0%
k_c1	10.0
k_c2	2.0
k_c3	10.0
k_c4	10.0
k_c5	7.0
k_c6	6.0
k_c7	6.0
k_c8	5.0
k_dN	-0.0
kDash_c1	5.0
kDash_c2	2.0
kDash_c3	6.0
kDash_c4	7.0
kDash_c5	2.0
kDash_c6	7.0
kDash_c7	0.0
kDash_c8	2.0
kDash_dN	-0.0
o_1	0.0
o_2	1.0
o_3	0.0
o_4	-0.0
o_5	0.0
o_6	1.0
o_7	0.0
o_8	-0.0
p_1	0.0
p_2	1.0
p_3	0.0
p_4	0.0
p_5	1.0
p_6	1.0
p_7	0.0
p_8	-0.0
phi_c1	15.0
phi_c2	7.0
phi_c3	7.0
phi_c4	11.0
phi_c5	10.0
phi_c6	5.0
phi_c7	2.0
phi_c8	13.0
phi_d0	18.0
phi_dN	-0.0
pi_c1	18.0
pi_c2	12.0
pi_c3	4.0
pi_c4	3.0
pi_c5	20.0
pi_c6	4.0
pi_c7	10.0
pi_c8	8.0
pi_dN	-0.0
tauD_c1	9.0
tauD_c2	27.0
tauD_c3	39.0
tauD_c4	5.0
tauD_c5	16.0
tauD_c6	48.0
tauD_c7	80.0
tauD_c8	17.0
tauD_d0	-0.0
tauD_dN	100.0
tauS_c1	81.0
tauS_c2	37.0
tauS_c3	82.0
tauS_c4	14.0
tauS_c5	8.0
tauS_c6	50.0
tauS_c7	25.0
tauS_c8	20.0
tauS_d0	-0.0
tauS_dN	66.0
x_c1_c8	1.0
x_c2_dN	1.0
x_c3_c6	1.0
x_c4_c5	1.0
x_c5_c3	1.0
x_c6_c7	1.0
x_c7_dN	1.0
x_c8_c2	1.0
x_d0_c1	1.0
x_d0_c4	1.0
z_c2_c6	1.0
z_c5_c2	1.0
z_c6_dN	1.0
z_d0_c5	1.0
